0 63 
1 63 
2 64 
3 66 
4 70 
5 70 
6 69 
7 67 
8 66 
9 66 
10 64 
11 65 
12 63 
13 64 
14 61 
15 57 
16 53 
17 50 
18 52 
19 51 
20 51 
21 51 
22 50 
23 50 
24 49 
25 46 
26 45 
27 44 
28 42 
29 38 
30 39 
31 38 
32 37 
33 37 
34 38 
35 37 
36 36 
37 37 
38 36 
39 36 
40 35 
41 34 
42 35 
43 34 
44 34 
45 33 
46 31 
47 31 
48 29 
49 29 
50 28 
51 27 
52 26 
53 23 
54 21 
55 21 
56 19 
57 15 
58 14 
59 12 
60 9 
61 9 
62 10 
63 11 
64 10 
65 11 
66 11 
67 10 
68 9 
69 7 
70 5 
71 4 
72 1 
73 2 
74 1 
75 0 
76 0 

